p tw 333 605
1 154
1 155
1 322
1 323
2 94
2 95
2 150
2 151
2 197
2 198
2 266
2 267
3 102
3 103
3 166
3 167
3 203
3 204
3 271
3 272
4 207
4 208
4 239
5 105
5 225
5 226
5 312
6 172
6 173
6 276
7 87
7 115
7 116
8 211
8 212
8 302
8 303
9 159
9 160
9 296
9 297
10 132
10 133
10 315
10 316
11 90
11 91
11 111
11 112
12 129
12 178
12 250
13 144
13 288
13 289
14 48
14 104
14 305
15 179
15 180
15 251
15 252
15 277
16 148
16 149
16 229
16 230
17 98
17 99
17 140
17 141
18 92
18 93
18 107
18 108
18 119
18 120
19 168
19 169
19 237
19 238
19 273
19 274
19 327
20 144
20 145
20 289
20 290
21 97
21 98
21 153
21 154
21 198
21 199
21 268
21 269
21 292
21 293
22 131
22 132
22 278
22 279
23 147
23 148
23 318
23 319
24 110
24 165
24 166
25 218
25 219
25 309
26 152
26 153
26 320
26 321
27 123
27 124
27 217
27 218
28 170
28 300
28 301
29 48
29 156
29 157
29 294
29 295
30 100
30 101
30 208
30 209
31 194
31 195
31 264
31 265
32 216
32 307
32 308
33 134
33 135
33 279
33 280
34 188
34 189
34 261
34 262
35 177
35 178
35 249
35 250
36 121
36 122
36 308
37 45
37 224
37 225
37 253
37 254
38 223
38 248
38 249
39 155
39 156
39 293
39 294
40 228
40 263
40 317
41 191
41 192
41 286
41 287
42 221
42 222
42 330
42 331
43 96
43 97
43 136
43 137
44 214
44 215
44 304
44 305
45 224
45 252
45 253
46 183
46 184
46 257
46 258
46 277
46 278
47 151
47 152
47 231
47 232
48 104
48 116
48 213
48 214
48 242
48 243
48 303
48 304
49 220
49 221
49 328
50 187
50 188
50 259
50 260
50 284
50 285
51 99
51 100
51 109
51 110
51 127
51 128
51 175
51 176
51 246
51 247
52 182
52 183
52 256
52 257
53 89
53 90
53 105
53 106
53 130
53 312
53 313
54 216
54 217
54 244
54 245
55 113
55 114
55 206
55 207
56 164
56 165
56 299
56 300
57 171
57 172
57 244
58 138
58 139
58 185
58 186
58 258
58 259
58 282
58 283
59 80
59 205
59 274
59 301
60 173
60 174
60 245
60 246
61 163
61 164
61 326
61 327
62 186
62 187
62 328
62 329
63 117
63 118
63 275
63 276
64 101
64 102
64 161
64 162
65 146
65 147
65 192
65 193
65 264
65 290
65 291
66 114
66 210
66 240
67 209
67 210
67 239
67 240
67 302
68 137
68 138
68 281
68 282
69 201
69 202
69 332
69 333
70 130
70 131
70 313
70 314
71 118
71 119
71 306
71 307
72 128
72 129
72 311
73 142
73 143
73 189
73 190
73 262
73 263
73 285
74 103
74 169
74 170
75 227
75 228
75 316
75 317
76 180
76 181
76 255
76 256
77 124
77 125
77 309
77 310
78 219
78 220
78 310
78 311
79 125
79 126
79 174
79 175
80 204
80 205
81 222
81 223
81 247
81 248
82 233
82 234
82 267
82 268
83 196
83 197
83 265
83 266
84 200
84 201
84 298
84 299
85 157
85 158
85 323
85 324
86 117
86 171
86 275
87 241
87 242
88 235
88 236
88 270
88 271
88 325
88 326
89 90
89 306
90 91
91 92
92 93
93 94
94 95
95 96
96 97
97 98
98 99
99 100
100 101
101 102
102 103
104 115
105 106
106 107
107 108
108 109
109 110
111 112
111 206
112 113
113 114
115 116
117 118
118 119
119 120
120 121
121 122
122 123
123 124
124 125
125 126
126 127
127 128
128 129
130 131
131 132
132 133
133 134
134 135
135 136
136 137
137 138
138 139
139 140
140 141
141 142
142 143
143 190
144 145
145 146
146 147
147 148
148 149
149 150
150 151
151 152
152 153
153 154
154 155
155 156
156 157
157 158
158 159
159 160
160 161
161 162
162 163
163 164
164 165
165 166
166 167
167 168
168 169
169 170
171 172
172 173
173 174
174 175
175 176
176 177
177 178
179 180
179 251
180 181
181 182
182 183
183 184
184 185
185 186
186 187
187 188
188 189
189 190
191 192
191 286
192 193
193 194
194 195
195 196
196 197
197 198
198 199
199 200
200 201
201 202
202 203
203 204
204 205
206 207
207 208
208 209
209 210
211 212
211 241
212 213
213 214
214 215
215 243
216 217
217 218
218 219
219 220
220 221
221 222
222 223
224 225
225 226
226 227
227 228
229 230
229 318
230 231
231 232
232 233
233 234
234 235
235 236
236 237
237 238
238 333
239 240
241 242
242 243
244 245
245 246
246 247
247 248
248 249
249 250
251 252
252 253
253 254
254 255
255 256
256 257
257 258
258 259
259 260
260 261
261 262
262 263
264 265
265 266
266 267
267 268
268 269
269 270
270 271
271 272
272 273
273 274
275 276
277 278
278 279
279 280
280 281
281 282
282 283
283 284
284 285
286 287
287 288
288 289
289 290
290 291
291 292
292 293
293 294
294 295
295 296
296 297
297 298
298 299
299 300
300 301
302 303
303 304
304 305
306 307
307 308
309 310
310 311
312 313
313 314
314 315
315 316
316 317
318 319
319 320
320 321
321 322
322 323
323 324
324 325
325 326
326 327
328 329
329 330
330 331
331 332
332 333
